c 
p cnf 114 190
4 21 22 0
4 21 -22 0
4 -21 22 0
4 -21 -22 0
15 13 23 0
15 13 -23 0
10 -6 24 0
10 -6 -24 0
1 10 25 0
-25 -18 26 0
-26 -17 19 0
-9 -10 27 0
-27 19 28 0
-28 -11 -12 0
-16 29 30 0
-16 29 -30 0
-16 -29 30 0
-16 -29 -30 0
13 31 32 0
13 31 -32 0
13 -31 32 0
13 -31 -32 0
-6 20 33 0
-33 -19 34 0
-34 -4 8 0
17 1 35 0
-35 -14 -13 0
-2 -1 36 0
-2 -1 -36 0
-5 -11 37 0
-37 1 38 0
-38 -20 18 0
-14 8 39 0
-14 8 -39 0
18 -4 40 0
-40 20 2 0
15 41 42 0
15 41 -42 0
15 -41 42 0
15 -41 -42 0
-15 43 44 0
-15 43 -44 0
-15 -43 44 0
-15 -43 -44 0
-15 9 45 0
-45 10 -2 0
-5 15 46 0
-5 15 -46 0
-9 47 48 0
-9 47 -48 0
-9 -47 48 0
-9 -47 -48 0
-7 -15 -17 0
-12 20 -1 0
-3 9 49 0
-49 13 -7 0
-14 -18 50 0
-50 -2 20 0
-14 1 51 0
-51 4 52 0
-52 12 -9 0
13 3 53 0
-53 10 -18 0
10 -11 54 0
10 -11 -54 0
-3 15 55 0
-55 7 12 0
19 -20 3 0
3 14 -17 0
10 -1 8 0
8 7 56 0
-56 14 10 0
-17 4 57 0
-17 4 -57 0
-3 58 59 0
-3 58 -59 0
-3 -58 59 0
-3 -58 -59 0
13 -12 60 0
13 -12 -60 0
-2 -20 61 0
-61 18 62 0
-62 -19 -11 0
-16 -15 63 0
-63 -4 64 0
-64 -20 -19 0
7 10 -3 0
-2 4 65 0
-65 13 9 0
13 -17 66 0
-66 -18 -7 0
-12 -8 67 0
-12 -8 -67 0
1 -10 68 0
1 -10 -68 0
-19 69 70 0
-19 69 -70 0
-19 -69 70 0
-19 -69 -70 0
11 -10 14 0
19 -18 71 0
-71 17 -6 0
8 -16 72 0
-72 9 17 0
-4 8 73 0
-73 -6 74 0
-74 5 14 0
-1 13 75 0
-75 -17 20 0
-7 -17 76 0
-76 6 -10 0
-6 -17 77 0
-6 -17 -77 0
2 -16 78 0
-78 -11 79 0
-79 -4 -15 0
-15 13 12 0
5 10 80 0
-80 14 81 0
-81 -7 -12 0
16 82 83 0
16 82 -83 0
16 -82 83 0
16 -82 -83 0
-7 84 85 0
-7 84 -85 0
-7 -84 85 0
-7 -84 -85 0
-20 11 86 0
-20 11 -86 0
7 87 88 0
7 87 -88 0
7 -87 88 0
7 -87 -88 0
-6 4 3 0
2 18 89 0
2 18 -89 0
19 -9 90 0
-90 12 18 0
15 19 91 0
15 19 -91 0
19 92 93 0
19 92 -93 0
19 -92 93 0
19 -92 -93 0
-16 94 95 0
-16 94 -95 0
-16 -94 95 0
-16 -94 -95 0
13 17 -9 0
17 -12 96 0
-96 2 14 0
15 -4 97 0
15 -4 -97 0
5 1 98 0
5 1 -98 0
3 -5 99 0
-99 -20 -12 0
-6 14 -11 0
-8 -19 -14 0
-14 -9 5 0
14 5 100 0
14 5 -100 0
2 101 102 0
2 101 -102 0
2 -101 102 0
2 -101 -102 0
-18 -3 103 0
-103 15 104 0
-104 -7 19 0
17 -5 105 0
-105 -10 18 0
9 106 107 0
9 106 -107 0
9 -106 107 0
9 -106 -107 0
-9 15 10 0
4 108 109 0
4 108 -109 0
4 -108 109 0
4 -108 -109 0
11 -19 110 0
11 -19 -110 0
13 16 111 0
-111 -9 112 0
-112 5 4 0
-18 -4 113 0
-18 -4 -113 0
-2 -13 114 0
-114 -15 -18 0
